s td 27 4 30
b 1 1 2 11
b 2 9 10 20
b 3 11 21 22
b 4 2 11 12 22
b 5 20 29 30
b 6 9 19 20 29
b 7 2 3 12 22
b 8 3 12 13 22
b 9 3 13 22 23
b 10 3 4 13 23
b 11 4 13 14 23
b 12 4 14 23 24
b 13 4 5 14 24
b 14 5 14 15 24
b 15 5 15 24 25
b 16 5 6 15 25
b 17 6 15 16 25
b 18 6 16 25 26
b 19 6 7 16 26
b 20 7 16 17 26
b 21 7 17 26 27
b 22 7 8 17 27
b 23 8 17 18 27
b 24 8 18 27 28
b 25 8 9 18 28
b 26 9 18 19 28
b 27 9 19 28 29
1 4
2 6
3 4
4 7
5 6
6 27
7 8
8 9
9 10
10 11
11 12
12 13
13 14
14 15
15 16
16 17
17 18
18 19
19 20
20 21
21 22
22 23
23 24
24 25
25 26
26 27
